NAME: berlin52.tsp
TYPE: TSP
COMMENT: Solution
DIMENSION: 52
TOUR_SECTION
1
22
31
18
3
17
21
30
42
7
2
29
23
20
50
16
46
44
34
35
36
39
40
38
37
48
24
5
6
15
4
25
12
28
27
26
47
14
13
52
11
51
33
43
10
9
8
41
19
45
32
49
-1
EOF